
Log started (V11.0.0) Thu May 15 00:47:48 2008

Tried aggregator 1 time.
Reduced MIP has 140 rows, 4001 columns, and 8040 nonzeros.
Presolve time =    0.03 sec.
Clique table members: 100.
MIP emphasis: balance optimality and feasibility.
MIP search method: dynamic search.
Parallel mode: none, using 1 thread.
Root relaxation solution time =    0.16 sec.

        Nodes                                         Cuts/
   Node  Left     Objective  IInf  Best Integer     Best Node    ItCnt     Gap

*     0+    0                        11096.0000      250.5867      463   97.74%
*     0+    0                          303.0000      250.5867      463   17.30%
      0     0      251.8489    74      303.0000      Fract: 5      540   16.88%
*     0+    0                          302.0000      251.8489      540   16.61%
      0     0      275.2923    71      302.0000   MIRcuts: 39     1362    8.84%
      0     0      275.3051    90      302.0000      Cuts: 30     1507    8.84%
      0     0      275.3172   101      302.0000      Cuts: 26     1589    8.84%
      0     0      275.3172   110      302.0000      Cuts: 26     1670    8.84%
      0     0      275.3176   111      302.0000      Cuts: 14     1721    8.84%
*     0+    0                          301.0000      275.3176     1721    8.53%
*     0+    0                          300.0000      275.3176     1721    8.23%
      0     2      275.3176   111      300.0000      275.3176     1721    8.23%
    100    78      276.0000    60      300.0000      275.3177     4639    8.23%
    200   146      276.0000    66      300.0000      275.3177    10266    8.23%
    300   210      276.0000    66      300.0000      275.3177    15454    8.23%
    400   269      276.6534    69      300.0000      275.3177    22669    8.23%
    500   329      276.6270    98      300.0000      275.3177    27321    8.23%

Cover cuts applied:  30
Flow cuts applied:  1
Mixed integer rounding cuts applied:  38
Zero-half cuts applied:  3
Gomory fractional cuts applied:  2

Solution pool: 5 solutions saved.

MIP - Integer optimal solution:  Objective = 3.0000000000e+002
Solution time =   17.11 sec.  Iterations = 28634  Nodes = 513 (336)


Incumbent solution
Variable Name           Solution Value
Cmax                        300.000000
X_1_29                        1.000000
X_2_16                        1.000000
X_3_40                        1.000000
X_4_21                        1.000000
X_5_33                        1.000000
X_6_28                        1.000000
X_7_24                        1.000000
X_8_4                         1.000000
X_9_40                        1.000000
X_10_36                       1.000000
X_11_32                       1.000000
X_12_20                       1.000000
X_13_1                        1.000000
X_14_34                       1.000000
X_15_25                       1.000000
X_16_14                       1.000000
X_17_38                       1.000000
X_18_5                        1.000000
X_19_14                       1.000000
X_20_37                       1.000000
X_21_2                        1.000000
X_22_1                        1.000000
X_23_38                       1.000000
X_24_27                       1.000000
X_25_18                       1.000000
X_26_3                        1.000000
X_27_15                       1.000000
X_28_2                        1.000000
X_29_30                       1.000000
X_30_33                       1.000000
X_31_6                        1.000000
X_32_29                       1.000000
X_33_11                       1.000000
X_34_30                       1.000000
X_35_9                        1.000000
X_36_31                       1.000000
X_37_16                       1.000000
X_38_26                       1.000000
X_39_8                        1.000000
X_40_21                       1.000000
X_41_31                       1.000000
X_42_17                       1.000000
X_43_23                       1.000000
X_44_30                       1.000000
X_45_22                       1.000000
X_46_10                       1.000000
X_47_25                       1.000000
X_48_12                       1.000000
X_49_10                       1.000000
X_50_20                       1.000000
X_51_28                       1.000000
X_52_17                       1.000000
X_53_28                       1.000000
X_54_24                       1.000000
X_55_34                       1.000000
X_56_12                       1.000000
X_57_35                       1.000000
X_58_39                       1.000000
X_59_4                        1.000000
X_60_31                       1.000000
X_61_37                       1.000000
X_62_26                       1.000000
X_63_4                        1.000000
X_64_35                       1.000000
X_65_36                       1.000000
X_66_39                       1.000000
X_67_38                       1.000000
X_68_2                        1.000000
X_69_20                       1.000000
X_70_39                       1.000000
X_71_32                       1.000000
X_72_35                       1.000000
X_73_7                        1.000000
X_74_16                       1.000000
X_75_8                        1.000000
X_76_6                        1.000000
X_77_14                       1.000000
X_78_36                       1.000000
X_79_19                       1.000000
X_80_23                       1.000000
X_81_1                        1.000000
X_82_27                       1.000000
X_83_9                        1.000000
X_84_22                       1.000000
X_85_13                       1.000000
X_86_22                       1.000000
X_87_19                       1.000000
X_88_5                        1.000000
X_89_40                       1.000000
X_90_13                       1.000000
X_91_11                       1.000000
X_92_23                       1.000000
X_93_7                        1.000000
X_94_3                        1.000000
X_95_18                       1.000000
X_96_15                       1.000000
X_97_19                       1.000000
X_98_37                       1.000000
X_99_24                       1.000000
X_100_12                      1.000000
All other variables in the range 1-4001 are 0.
